Solver command line: ['C:\\Users\\Gabriela Escobar\\anaconda3\\envs\\pyomo_env\\Library\\bin\\glpsol.exe', '--write', 'C:\\Users\\GABRIE~1\\AppData\\Local\\Temp\\tmpf0tp68_t.glpk.raw', '--wglp', 'C:\\Users\\GABRIE~1\\AppData\\Local\\Temp\\tmpuxsi1ad3.glpk.glp', '--cpxlp', 'C:\\Users\\GABRIE~1\\AppData\\Local\\Temp\\tmpgkik7x6_.pyomo.lp']

GLPSOL--GLPK LP/MIP Solver 5.0
Parameter(s) specified in the command line:
 --write C:\Users\GABRIE~1\AppData\Local\Temp\tmpf0tp68_t.glpk.raw --wglp
 C:\Users\GABRIE~1\AppData\Local\Temp\tmpuxsi1ad3.glpk.glp --cpxlp C:\Users\GABRIE~1\AppData\Local\Temp\tmpgkik7x6_.pyomo.lp
Reading problem data from 'C:\Users\GABRIE~1\AppData\Local\Temp\tmpgkik7x6_.pyomo.lp'...
151 rows, 151 columns, 22501 non-zeros
23262 lines were read
Writing problem data to 'C:\Users\GABRIE~1\AppData\Local\Temp\tmpuxsi1ad3.glpk.glp'...
23107 lines were written
GLPK Simplex Optimizer 5.0
151 rows, 151 columns, 22501 non-zeros
Preprocessing...
150 rows, 150 columns, 22500 non-zeros
Scaling...
 A: min|aij| =  8.241e-05  max|aij| =  5.000e+00  ratio =  6.067e+04
GM: min|aij| =  6.987e-03  max|aij| =  1.431e+02  ratio =  2.048e+04
EQ: min|aij| =  4.882e-05  max|aij| =  1.000e+00  ratio =  2.048e+04
Constructing initial basis...
Size of triangular part is 150
*     0: obj =  -0.000000000e+00 inf =   0.000e+00 (150)
*   111: obj =   6.108628000e+02 inf =   0.000e+00 (0) 1
OPTIMAL LP SOLUTION FOUND
Time used:   0.0 secs
Memory used: 3.8 Mb (3940108 bytes)
Writing basic solution to 'C:\Users\GABRIE~1\AppData\Local\Temp\tmpf0tp68_t.glpk.raw'...
311 lines were written

